(set-logic HORN)
(declare-fun !inv0 (Int (Array Int Int) Int ) Bool)
(assert (forall ((N@0 Int)(j@0 Int)(array@0 (Array Int Int))) (=> (and (> |N@0| 0) (= |j@0| |N@0|)) (!inv0 |N@0| |array@0| |j@0|))))
(assert (forall ((N@0 Int)(array@0 (Array Int Int))(j@0 Int)(array@1 (Array Int Int))(j@1 Int)) (=> (and (!inv0 |N@0| |array@0| |j@0|) (> |j@0| 0) (= |array@1| (store |array@0| (- |j@0| 1) (- |j@0| 1))) (= |j@1| (- |j@0| 1))) (!inv0 |N@0| |array@1| |j@1|))))
(assert (forall ((N@0 Int)(array@0 (Array Int Int))(j@0 Int)) (=> (and (!inv0 |N@0| |array@0| |j@0|) (not (> |j@0| 0)) (not (forall ((k@0 Int)) (=> (and (<= 0 |k@0|) (< |k@0| |N@0|)) (= (select |array@0| |k@0|) |k@0|))))) false)))
(check-sat)